language ESSENCE' 1.0
$ Minion SolverNodes: 49
$ Minion SolverTotalTime: 0.039925
$ Minion SolverTimeOut: 0
$ Savile Row TotalTime: 0.702
letting M be [[38, 21, 8, 18, 20, 19, 2, 12, 6], 
[38, 8, 18, 20, 19, 2, 12, 6, -1], 
[38, 8, 18, 19, 2, 12, 6, -1, -1], 
[38, 2, 18, 19, 12, 6, -1, -1, -1], 
[38, 2, 19, 12, 6, -1, -1, -1, -1], 
[12, 2, 19, 6, -1, -1, -1, -1, -1], 
[2, 19, 6, -1, -1, -1, -1, -1, -1], 
[2, 6, -1, -1, -1, -1, -1, -1, -1], 
[6, -1, -1, -1, -1, -1, -1, -1, -1]]
